% Logging successfully configured
%%%mzn-stat: initTime=0.010596713
%%%mzn-stat: objective=1138
%%%mzn-stat: nodes=310
%%%mzn-stat: restarts=0
%%%mzn-stat: peakDepth=254
%%%mzn-stat: solveTime=0.005925976
%%%mzn-stat: variables=685
%%%mzn-stat: propagators=1633
%%%mzn-stat: failures=42
%%%mzn-stat: propagations=28303
%%%mzn-stat: nogoods=42
%%%mzn-stat: numAtomicConstraintsPropagated=0
%%%mzn-stat: circuitNumber1226PropagationsThatFoundConflict=2
%%%mzn-stat: circuitNumber1226TotalFixedEdgesAtConflict=93
%%%mzn-stat: circuitNumber1226NumberOfConflicts=2
%%%mzn-stat: circuitNumber1226PropagationsThatPruned=13
%%%mzn-stat: circuitNumber1226PropagationsTotal=83
%%%mzn-stat: AverageConflictSize=3.9761904761904763
%%%mzn-stat: NumUnitNogoodsLearned=0
%%%mzn-stat: AverageLearnedNogoodLength=19.428571428571427
%%%mzn-stat: AverageBacktrackAmount=0
%%%mzn-stat: AverageLbd=10.619047619047619
%%%mzn-stat: 2AutonomousSearchNumBackupCalled=235
%%%mzn-stat: 2AutonomousSearchNumPredicatesRemoved=0
%%%mzn-stat: 2AutonomousSearchNumCalls=236
%%%mzn-stat: 2AutonomousSearchNumPredicatesAdded=1090
%%%mzn-stat: 2AutonomousSearchAverageSizeOfHeap=4.61864406779661
%%%mzn-stat: 2AutonomousSearchNumAssignedPredicatesEncountered=1090
%%%mzn-stat-end
maxleg = 1138;
succ = array1d(1..50,[15, 16, 2, 10, 17, 3, 9, 7, 20, 48, 5, 4, 22, 18, 11, 36, 43, 41, 30, 12, 27, 23, 42, 13, 39, 31, 33, 26, 34, 49, 6, 38, 32, 44, 47, 50, 40, 28, 1, 19, 25, 14, 29, 46, 37, 21, 45, 35, 24, 8]);
% time elapsed: 0.26 s
----------
%%%mzn-stat: initTime=0.010596713
%%%mzn-stat: objective=1076
%%%mzn-stat: nodes=665
%%%mzn-stat: restarts=0
%%%mzn-stat: peakDepth=263
%%%mzn-stat: solveTime=0.017032573
%%%mzn-stat: variables=685
%%%mzn-stat: propagators=1633
%%%mzn-stat: failures=121
%%%mzn-stat: propagations=78311
%%%mzn-stat: nogoods=121
%%%mzn-stat: numAtomicConstraintsPropagated=0
%%%mzn-stat: circuitNumber1226PropagationsThatFoundConflict=6
%%%mzn-stat: circuitNumber1226TotalFixedEdgesAtConflict=293
%%%mzn-stat: circuitNumber1226NumberOfConflicts=6
%%%mzn-stat: circuitNumber1226PropagationsThatPruned=36
%%%mzn-stat: circuitNumber1226PropagationsTotal=203
%%%mzn-stat: AverageConflictSize=4.181818181818182
%%%mzn-stat: NumUnitNogoodsLearned=0
%%%mzn-stat: AverageLearnedNogoodLength=19.173553719008265
%%%mzn-stat: AverageBacktrackAmount=0
%%%mzn-stat: AverageLbd=10.950413223140496
%%%mzn-stat: 2AutonomousSearchNumBackupCalled=476
%%%mzn-stat: 2AutonomousSearchNumPredicatesRemoved=0
%%%mzn-stat: 2AutonomousSearchNumCalls=478
%%%mzn-stat: 2AutonomousSearchNumPredicatesAdded=2226
%%%mzn-stat: 2AutonomousSearchAverageSizeOfHeap=4.797071129707113
%%%mzn-stat: 2AutonomousSearchNumAssignedPredicatesEncountered=2293
%%%mzn-stat-end
maxleg = 1076;
succ = array1d(1..50,[15, 16, 2, 10, 17, 3, 9, 7, 20, 48, 5, 4, 22, 18, 29, 36, 43, 41, 30, 12, 27, 23, 11, 13, 39, 31, 33, 26, 14, 49, 6, 38, 32, 44, 34, 50, 42, 28, 1, 19, 37, 47, 25, 46, 21, 40, 45, 35, 24, 8]);
% time elapsed: 0.28 s
----------
%%%mzn-stat: initTime=0.010596713
%%%mzn-stat: objective=1033
%%%mzn-stat: nodes=995
%%%mzn-stat: restarts=0
%%%mzn-stat: peakDepth=263
%%%mzn-stat: solveTime=0.025055315
%%%mzn-stat: variables=685
%%%mzn-stat: propagators=1633
%%%mzn-stat: failures=176
%%%mzn-stat: propagations=112671
%%%mzn-stat: nogoods=176
%%%mzn-stat: numAtomicConstraintsPropagated=0
%%%mzn-stat: circuitNumber1226PropagationsThatFoundConflict=9
%%%mzn-stat: circuitNumber1226TotalFixedEdgesAtConflict=406
%%%mzn-stat: circuitNumber1226NumberOfConflicts=9
%%%mzn-stat: circuitNumber1226PropagationsThatPruned=48
%%%mzn-stat: circuitNumber1226PropagationsTotal=297
%%%mzn-stat: AverageConflictSize=3.7556818181818183
%%%mzn-stat: NumUnitNogoodsLearned=0
%%%mzn-stat: AverageLearnedNogoodLength=19.795454545454547
%%%mzn-stat: AverageBacktrackAmount=0
%%%mzn-stat: AverageLbd=10.744318181818182
%%%mzn-stat: 2AutonomousSearchNumBackupCalled=715
%%%mzn-stat: 2AutonomousSearchNumPredicatesRemoved=0
%%%mzn-stat: 2AutonomousSearchNumCalls=718
%%%mzn-stat: 2AutonomousSearchNumPredicatesAdded=3429
%%%mzn-stat: 2AutonomousSearchAverageSizeOfHeap=5.137883008356546
%%%mzn-stat: 2AutonomousSearchNumAssignedPredicatesEncountered=3689
%%%mzn-stat-end
maxleg = 1033;
succ = array1d(1..50,[15, 32, 2, 10, 17, 3, 9, 7, 20, 48, 5, 4, 22, 18, 29, 36, 43, 41, 30, 12, 27, 23, 6, 13, 39, 31, 11, 26, 14, 49, 45, 21, 16, 44, 34, 50, 42, 28, 1, 19, 37, 47, 25, 46, 33, 40, 38, 35, 24, 8]);
% time elapsed: 0.29 s
----------
%%%mzn-stat: initTime=0.010596713
%%%mzn-stat: objective=974
%%%mzn-stat: nodes=1252
%%%mzn-stat: restarts=0
%%%mzn-stat: peakDepth=263
%%%mzn-stat: solveTime=0.026105168
%%%mzn-stat: variables=685
%%%mzn-stat: propagators=1633
%%%mzn-stat: failures=179
%%%mzn-stat: propagations=117236
%%%mzn-stat: nogoods=179
%%%mzn-stat: numAtomicConstraintsPropagated=0
%%%mzn-stat: circuitNumber1226PropagationsThatFoundConflict=10
%%%mzn-stat: circuitNumber1226TotalFixedEdgesAtConflict=456
%%%mzn-stat: circuitNumber1226NumberOfConflicts=10
%%%mzn-stat: circuitNumber1226PropagationsThatPruned=50
%%%mzn-stat: circuitNumber1226PropagationsTotal=324
%%%mzn-stat: AverageConflictSize=3.888268156424581
%%%mzn-stat: NumUnitNogoodsLearned=0
%%%mzn-stat: AverageLearnedNogoodLength=19.76536312849162
%%%mzn-stat: AverageBacktrackAmount=0
%%%mzn-stat: AverageLbd=10.748603351955307
%%%mzn-stat: 2AutonomousSearchNumBackupCalled=947
%%%mzn-stat: 2AutonomousSearchNumPredicatesRemoved=0
%%%mzn-stat: 2AutonomousSearchNumCalls=951
%%%mzn-stat: 2AutonomousSearchNumPredicatesAdded=3803
%%%mzn-stat: 2AutonomousSearchAverageSizeOfHeap=5.350157728706624
%%%mzn-stat: 2AutonomousSearchNumAssignedPredicatesEncountered=5088
%%%mzn-stat-end
maxleg = 974;
succ = array1d(1..50,[15, 32, 2, 10, 17, 3, 9, 7, 20, 48, 5, 4, 22, 18, 29, 36, 43, 41, 30, 12, 27, 23, 11, 13, 39, 31, 33, 26, 34, 49, 6, 21, 16, 45, 44, 50, 42, 28, 1, 19, 37, 47, 25, 46, 14, 40, 38, 35, 24, 8]);
% time elapsed: 0.29 s
----------
%%%mzn-stat: initTime=0.010596713
%%%mzn-stat: objective=942
%%%mzn-stat: nodes=1502
%%%mzn-stat: restarts=0
%%%mzn-stat: peakDepth=263
%%%mzn-stat: solveTime=0.027269918
%%%mzn-stat: variables=685
%%%mzn-stat: propagators=1633
%%%mzn-stat: failures=182
%%%mzn-stat: propagations=122391
%%%mzn-stat: nogoods=182
%%%mzn-stat: numAtomicConstraintsPropagated=0
%%%mzn-stat: circuitNumber1226PropagationsThatFoundConflict=11
%%%mzn-stat: circuitNumber1226TotalFixedEdgesAtConflict=506
%%%mzn-stat: circuitNumber1226NumberOfConflicts=11
%%%mzn-stat: circuitNumber1226PropagationsThatPruned=52
%%%mzn-stat: circuitNumber1226PropagationsTotal=346
%%%mzn-stat: AverageConflictSize=4.016483516483516
%%%mzn-stat: NumUnitNogoodsLearned=0
%%%mzn-stat: AverageLearnedNogoodLength=19.9010989010989
%%%mzn-stat: AverageBacktrackAmount=0
%%%mzn-stat: AverageLbd=10.796703296703297
%%%mzn-stat: 2AutonomousSearchNumBackupCalled=1176
%%%mzn-stat: 2AutonomousSearchNumPredicatesRemoved=0
%%%mzn-stat: 2AutonomousSearchNumCalls=1181
%%%mzn-stat: 2AutonomousSearchNumPredicatesAdded=4580
%%%mzn-stat: 2AutonomousSearchAverageSizeOfHeap=5.492802709568163
%%%mzn-stat: 2AutonomousSearchNumAssignedPredicatesEncountered=6487
%%%mzn-stat-end
maxleg = 942;
succ = array1d(1..50,[15, 32, 2, 10, 17, 3, 9, 7, 20, 48, 5, 4, 22, 18, 29, 45, 43, 41, 30, 12, 27, 23, 11, 13, 39, 31, 33, 26, 16, 49, 6, 21, 36, 44, 34, 50, 42, 28, 1, 19, 37, 47, 25, 46, 14, 40, 38, 35, 24, 8]);
% time elapsed: 0.30 s
----------
%%%mzn-stat: initTime=0.010596713
%%%mzn-stat: objective=855
%%%mzn-stat: nodes=1788
%%%mzn-stat: restarts=0
%%%mzn-stat: peakDepth=263
%%%mzn-stat: solveTime=0.034187274
%%%mzn-stat: variables=685
%%%mzn-stat: propagators=1633
%%%mzn-stat: failures=227
%%%mzn-stat: propagations=151137
%%%mzn-stat: nogoods=227
%%%mzn-stat: numAtomicConstraintsPropagated=0
%%%mzn-stat: circuitNumber1226PropagationsThatFoundConflict=17
%%%mzn-stat: circuitNumber1226TotalFixedEdgesAtConflict=806
%%%mzn-stat: circuitNumber1226NumberOfConflicts=17
%%%mzn-stat: circuitNumber1226PropagationsThatPruned=64
%%%mzn-stat: circuitNumber1226PropagationsTotal=426
%%%mzn-stat: AverageConflictSize=5
%%%mzn-stat: NumUnitNogoodsLearned=0
%%%mzn-stat: AverageLearnedNogoodLength=20.044052863436125
%%%mzn-stat: AverageBacktrackAmount=0
%%%mzn-stat: AverageLbd=10.889867841409691
%%%mzn-stat: 2AutonomousSearchNumBackupCalled=1391
%%%mzn-stat: 2AutonomousSearchNumPredicatesRemoved=0
%%%mzn-stat: 2AutonomousSearchNumCalls=1397
%%%mzn-stat: 2AutonomousSearchNumPredicatesAdded=5883
%%%mzn-stat: 2AutonomousSearchAverageSizeOfHeap=5.748747315676449
%%%mzn-stat: 2AutonomousSearchNumAssignedPredicatesEncountered=8031
%%%mzn-stat-end
maxleg = 855;
succ = array1d(1..50,[15, 32, 2, 10, 17, 3, 9, 7, 20, 48, 5, 4, 46, 18, 11, 39, 43, 41, 30, 12, 44, 23, 6, 13, 22, 31, 33, 26, 16, 49, 45, 38, 36, 29, 34, 50, 40, 28, 1, 19, 37, 47, 25, 42, 14, 21, 27, 35, 24, 8]);
% time elapsed: 0.30 s
----------
==========
% time elapsed: 0.30 s
%%%mzn-stat: initTime=0.010596713
%%%mzn-stat: objective=855
%%%mzn-stat: nodes=1788
%%%mzn-stat: restarts=0
%%%mzn-stat: peakDepth=263
%%%mzn-stat: solveTime=0.034226291
%%%mzn-stat: variables=685
%%%mzn-stat: propagators=1633
%%%mzn-stat: failures=228
%%%mzn-stat: propagations=151186
%%%mzn-stat: nogoods=228
%%%mzn-stat: numAtomicConstraintsPropagated=0
%%%mzn-stat: circuitNumber1226PropagationsThatFoundConflict=17
%%%mzn-stat: circuitNumber1226TotalFixedEdgesAtConflict=806
%%%mzn-stat: circuitNumber1226NumberOfConflicts=17
%%%mzn-stat: circuitNumber1226PropagationsThatPruned=64
%%%mzn-stat: circuitNumber1226PropagationsTotal=426
%%%mzn-stat: AverageConflictSize=4.9868421052631575
%%%mzn-stat: NumUnitNogoodsLearned=1
%%%mzn-stat: AverageLearnedNogoodLength=19.960526315789473
%%%mzn-stat: AverageBacktrackAmount=0
%%%mzn-stat: AverageLbd=10.846491228070175
%%%mzn-stat: 2AutonomousSearchNumBackupCalled=1391
%%%mzn-stat: 2AutonomousSearchNumPredicatesRemoved=0
%%%mzn-stat: 2AutonomousSearchNumCalls=1397
%%%mzn-stat: 2AutonomousSearchNumPredicatesAdded=5898
%%%mzn-stat: 2AutonomousSearchAverageSizeOfHeap=5.748747315676449
%%%mzn-stat: 2AutonomousSearchNumAssignedPredicatesEncountered=8031
%%%mzn-stat-end
